(set-info :Origin "This instance was generated by: BanditFuzz-- an RL fuzzer for SMT solvers" )
(set-info :Author "Joe Scott, Fed Mora, Vijay Ganesh" )
(set-info :Contact "Joe Scott, joseph.scott@uwaterloo.ca")
(set-logic QF_BV)
(declare-const bool_0 Bool)
(declare-const bool_1 Bool)
(declare-const bool_2 Bool)
(declare-const bool_3 Bool)
(declare-const bool_4 Bool)
(declare-const bv_0 (_ BitVec 32))
(declare-const bv_1 (_ BitVec 32))
(declare-const bv_2 (_ BitVec 32))
(declare-const bv_3 (_ BitVec 32))
(declare-const bv_4 (_ BitVec 32))
(assert (=> (bvsgt (bvurem #xf49dc98b  #x362664ba ) (bvashr bv_3 bv_0)) (bvslt (bvsub bv_2 #x68173a51 ) (bvshl #x47623a30  bv_1))))
(assert (xor (or (not true) (bvuge #x292fe94d  #xd238a1b5 )) (bvule (bvnor #x44db3bcd  #x82b41784 ) (bvsmod bv_4 bv_3))))
(assert (or (=> (not bool_1) (bvult bv_2 #xc943614c )) (bvsge (bvnor bv_3 bv_3) (bvnand bv_0 bv_3))))
(assert (bvugt (bvsub (bvashr #x77ca9c78  #xf1c209b2 ) (bvashr #x5adf50d2  bv_3)) (bvsrem (bvsub #x1978deee  bv_0) (bvor #xd4656d65  #xab2489eb ))))
(assert (bvsge (bvxnor (bvor #xceeecad6  #x9385419f ) (bvsub #x3c1fde43  #xb3872d6e )) (bvxnor (bvurem bv_1 bv_0) (bvlshr bv_4 bv_2))))
(check-sat)
(exit)
